set VV := 0 1 2 3 4 5 6 7 8 9 10 11 12 13 14 15 16 17 18 19 20 21 22 23 24 25 26 27 28 29 30 31 32 33 34 35 36 37 38 ;
set VS := 0 1 2 3 4 5 6 7 8 9 10 11 12 13 14 15 16 17 18 19 20 21 22 23 24 25 26 27 28 29 30 31 32 33 34 35 36 37 38 39 40 41 42 43 44 45 46 47 48 49 50 51 52 53 54 55 56 57 58 59 60 61 62 63 64 65 66 67 68 69 70 71 72 73 74 75 76 77 78 79 80 81 82 ;
param cv := 
0 24
1 16
2 14
3 11
4 13
5 21
6 21
7 22
8 24
9 20
10 22
11 19
12 22
13 12
14 21
15 13
16 21
17 14
18 13
19 17
20 18
21 17
22 24
23 10
24 15
25 21
26 20
27 11
28 21
29 13
30 11
31 16
32 22
33 11
34 21
35 16
36 14
37 21
38 17
;
param cs := 
0 37
1 26
2 23
3 36
4 32
5 22
6 23
7 30
8 37
9 40
10 22
11 36
12 38
13 37
14 23
15 36
16 31
17 34
18 31
19 36
20 25
21 20
22 40
23 24
24 33
25 34
26 28
27 40
28 38
29 26
30 40
31 35
32 33
33 35
34 34
35 36
36 29
37 39
38 29
39 39
40 34
41 34
42 21
43 39
44 21
45 24
46 31
47 34
48 29
49 40
50 33
51 36
52 34
53 30
54 20
55 34
56 21
57 25
58 39
59 22
60 24
61 36
62 33
63 29
64 36
65 40
66 35
67 27
68 29
69 33
70 22
71 40
72 39
73 20
74 36
75 34
76 31
77 34
78 30
79 20
80 35
81 25
82 21
;
param bv:	 0 1 2 3 4 5 6 7 8 9 10 11 12 13 14 15 16 17 18 19 20 21 22 23 24 25 26 27 28 29 30 31 32 33 34 35 36 37 38 := 
		0 0 0 0 0 0 0 0 0 0 0 0 0 0 20 0 13 0 0 0 0 0 0 0 0 0 21 0 0 0 0 0 0 0 0 24 12 24 0 0 
		1 0 0 0 0 0 0 22 0 0 0 0 0 0 0 0 0 0 0 0 0 0 0 0 0 0 0 0 0 0 0 0 0 0 0 0 0 0 0 10 
		2 0 0 0 0 0 0 0 0 0 0 0 0 0 0 0 0 0 0 0 0 0 0 0 0 10 0 0 0 0 0 0 0 22 0 0 0 0 0 0 
		3 0 0 0 0 0 0 0 0 0 0 0 0 0 14 0 0 19 0 25 0 0 0 0 0 0 0 0 0 0 0 0 13 0 0 0 0 0 13 0 
		4 0 0 0 0 0 0 0 0 0 0 0 0 0 0 0 0 0 0 0 0 15 0 0 0 0 14 0 0 13 0 0 17 0 0 0 0 0 0 0 
		5 0 0 0 0 0 0 0 0 0 0 0 0 0 0 0 0 0 0 0 0 0 0 15 0 0 0 0 0 0 0 0 0 0 15 0 0 0 21 0 
		6 0 0 0 0 0 0 0 0 0 0 0 0 0 0 0 0 0 0 0 0 0 0 0 0 0 0 0 0 0 0 16 0 14 0 0 0 0 0 0 
		7 0 0 0 0 0 0 0 0 0 0 10 0 0 0 0 0 0 0 22 0 0 0 0 0 0 0 0 0 15 0 0 0 0 0 0 0 0 0 0 
		8 0 0 0 0 0 0 0 0 0 0 0 0 0 22 11 0 0 0 0 0 0 0 0 0 0 15 0 0 0 0 0 0 0 0 0 0 0 11 0 
		9 0 0 0 0 0 0 0 0 0 0 0 0 0 0 0 13 0 0 0 0 0 0 0 17 0 0 0 0 0 23 0 0 0 0 0 11 17 0 18 
		10 0 0 0 0 0 0 0 0 0 0 0 0 10 0 0 0 18 0 15 10 0 15 0 0 0 0 0 0 0 0 11 0 0 15 0 0 0 0 0 
		11 0 0 0 0 0 0 0 0 0 0 0 0 0 0 0 0 0 0 0 0 0 0 0 0 0 0 0 0 10 0 0 0 18 0 0 0 0 0 0 
		12 0 0 0 0 0 0 0 0 0 0 0 0 0 0 0 25 0 0 0 0 0 0 25 0 0 0 0 0 0 0 0 0 0 0 0 0 0 0 0 
		13 0 0 0 0 0 0 0 0 0 0 0 0 0 0 0 0 0 0 21 0 0 0 0 0 0 0 0 0 0 0 0 0 0 0 11 15 0 0 0 
		14 0 0 0 0 0 0 0 0 0 0 0 0 0 0 0 0 0 0 0 0 0 22 0 0 0 18 0 0 0 22 0 0 0 0 0 0 0 0 0 
		15 0 0 0 0 0 0 0 0 0 0 0 0 0 0 0 0 0 0 0 0 0 0 0 0 0 0 11 0 0 0 0 0 0 0 14 0 0 0 24 
		16 0 0 0 0 0 0 0 0 0 0 0 0 0 0 0 0 0 0 0 14 0 0 0 0 0 0 0 0 0 0 0 0 0 0 0 23 0 12 0 
		17 0 0 0 0 0 0 0 0 0 0 0 0 0 0 0 0 0 0 0 0 0 0 0 0 0 0 18 0 0 0 0 0 0 0 0 0 0 0 0 
		18 0 0 0 0 0 0 0 0 0 0 0 0 0 0 0 0 0 0 0 0 0 21 0 0 0 0 0 0 0 0 0 0 14 0 0 0 0 0 0 
		19 0 0 0 0 0 0 0 0 0 0 0 0 0 0 0 0 0 0 0 0 20 0 0 0 0 0 0 0 0 22 0 0 0 0 0 0 0 19 0 
		20 0 0 0 0 0 0 0 0 0 0 0 0 0 0 0 0 0 0 0 0 0 0 0 0 0 0 0 0 0 0 0 0 0 0 0 0 0 0 0 
		21 0 0 0 0 0 0 0 0 0 0 0 0 0 0 0 0 0 0 0 0 0 0 0 0 0 0 0 0 0 0 0 0 15 0 0 0 0 0 0 
		22 0 0 0 0 0 0 0 0 0 0 0 0 0 0 0 0 0 0 0 0 0 0 0 0 0 0 0 0 0 0 0 0 0 0 0 0 0 0 0 
		23 0 0 0 0 0 0 0 0 0 0 0 0 0 0 0 0 0 0 0 0 0 0 0 0 0 0 0 0 0 0 13 0 0 0 0 0 0 0 19 
		24 0 0 0 0 0 0 0 0 0 0 0 0 0 0 0 0 0 0 0 0 0 0 0 0 0 0 0 0 0 14 0 0 0 0 0 0 0 0 0 
		25 0 0 0 0 0 0 0 0 0 0 0 0 0 0 0 0 0 0 0 0 0 0 0 0 0 0 10 0 0 0 0 0 0 0 0 0 0 0 0 
		26 0 0 0 0 0 0 0 0 0 0 0 0 0 0 0 0 0 0 0 0 0 0 0 0 0 0 0 0 23 0 0 0 0 0 0 0 0 0 0 
		27 0 0 0 0 0 0 0 0 0 0 0 0 0 0 0 0 0 0 0 0 0 0 0 0 0 0 0 0 0 0 0 11 0 0 24 0 0 0 0 
		28 0 0 0 0 0 0 0 0 0 0 0 0 0 0 0 0 0 0 0 0 0 0 0 0 0 0 0 0 0 0 0 0 0 0 0 14 0 0 0 
		29 0 0 0 0 0 0 0 0 0 0 0 0 0 0 0 0 0 0 0 0 0 0 0 0 0 0 0 0 0 0 0 0 0 14 0 0 0 0 0 
		30 0 0 0 0 0 0 0 0 0 0 0 0 0 0 0 0 0 0 0 0 0 0 0 0 0 0 0 0 0 0 0 0 0 0 0 0 0 0 0 
		31 0 0 0 0 0 0 0 0 0 0 0 0 0 0 0 0 0 0 0 0 0 0 0 0 0 0 0 0 0 0 0 0 0 0 0 11 0 0 23 
		32 0 0 0 0 0 0 0 0 0 0 0 0 0 0 0 0 0 0 0 0 0 0 0 0 0 0 0 0 0 0 0 0 0 0 19 0 0 0 0 
		33 0 0 0 0 0 0 0 0 0 0 0 0 0 0 0 0 0 0 0 0 0 0 0 0 0 0 0 0 0 0 0 0 0 0 0 0 0 0 0 
		34 0 0 0 0 0 0 0 0 0 0 0 0 0 0 0 0 0 0 0 0 0 0 0 0 0 0 0 0 0 0 0 0 0 0 0 0 23 0 0 
		35 0 0 0 0 0 0 0 0 0 0 0 0 0 0 0 0 0 0 0 0 0 0 0 0 0 0 0 0 0 0 0 0 0 0 0 0 0 0 0 
		36 0 0 0 0 0 0 0 0 0 0 0 0 0 0 0 0 0 0 0 0 0 0 0 0 0 0 0 0 0 0 0 0 0 0 0 0 0 0 0 
		37 0 0 0 0 0 0 0 0 0 0 0 0 0 0 0 0 0 0 0 0 0 0 0 0 0 0 0 0 0 0 0 0 0 0 0 0 0 0 0 
		38 0 0 0 0 0 0 0 0 0 0 0 0 0 0 0 0 0 0 0 0 0 0 0 0 0 0 0 0 0 0 0 0 0 0 0 0 0 0 0 
;
param bs:	 0 1 2 3 4 5 6 7 8 9 10 11 12 13 14 15 16 17 18 19 20 21 22 23 24 25 26 27 28 29 30 31 32 33 34 35 36 37 38 39 40 41 42 43 44 45 46 47 48 49 50 51 52 53 54 55 56 57 58 59 60 61 62 63 64 65 66 67 68 69 70 71 72 73 74 75 76 77 78 79 80 81 82 := 
		0 0 0 21 27 0 0 28 0 0 22 0 0 0 0 0 0 0 24 0 0 0 0 0 0 0 0 24 0 0 0 0 0 0 0 0 37 0 23 0 0 0 0 0 0 0 0 0 0 0 0 0 0 0 0 0 0 0 0 30 0 26 0 0 0 27 0 0 0 0 0 0 0 0 26 0 0 0 0 0 0 0 0 0 
		1 0 0 23 0 0 0 0 0 0 0 0 22 0 0 0 0 0 23 0 0 21 28 0 0 0 34 0 0 36 0 0 0 0 0 0 0 0 0 0 0 0 26 0 28 0 0 0 0 0 0 0 0 0 40 0 23 0 0 0 0 0 0 0 0 0 0 0 0 0 0 0 0 0 0 0 0 0 0 30 35 0 0 0 
		2 21 23 0 31 0 0 33 0 0 0 0 0 0 0 0 0 0 0 0 0 0 0 27 0 0 0 0 26 0 33 0 0 0 0 0 0 32 0 21 0 0 0 0 0 0 0 0 0 0 28 0 33 0 0 0 0 0 0 0 20 20 32 39 0 0 0 0 0 0 0 0 27 0 0 0 0 0 0 0 0 0 0 0 
		3 27 0 31 0 0 0 0 0 0 0 0 0 31 0 0 0 0 24 0 0 0 0 0 0 0 0 0 0 0 0 0 0 0 0 29 0 0 0 0 0 0 0 0 0 0 0 0 0 0 0 0 0 0 0 0 0 0 0 0 0 0 0 0 0 30 0 0 35 0 0 0 0 0 0 0 0 0 25 0 33 38 34 0 
		4 0 0 0 0 0 0 0 0 0 0 0 0 0 0 0 0 0 0 0 0 0 0 0 0 0 0 0 0 0 0 0 0 0 0 0 24 0 0 30 0 0 0 34 0 0 0 0 0 0 0 0 0 34 0 0 0 0 35 0 0 0 0 36 0 0 0 0 0 0 33 0 0 0 20 0 0 0 0 0 0 0 0 0 
		5 0 0 0 0 0 0 20 0 0 0 0 0 0 0 40 0 0 0 0 0 0 0 0 0 0 0 0 0 0 34 0 0 0 0 0 0 0 0 0 0 0 0 40 0 39 0 0 28 0 0 0 0 0 0 0 0 0 0 0 0 0 0 0 0 0 0 0 0 0 0 35 0 0 0 0 0 0 0 0 0 0 0 0 
		6 28 0 33 0 0 20 0 0 22 0 0 0 0 0 0 0 0 0 0 0 0 33 39 0 0 0 0 37 30 0 0 0 0 0 0 21 0 0 0 40 0 36 0 0 0 31 0 0 0 0 0 0 0 0 34 0 0 0 0 0 0 0 0 0 31 0 0 0 20 0 0 0 0 0 0 0 0 0 0 0 0 34 27 
		7 0 0 0 0 0 0 0 0 0 0 22 0 0 0 0 0 0 0 0 0 0 0 0 0 0 0 0 0 0 0 0 40 0 0 0 0 0 0 0 0 0 0 0 38 30 36 0 0 0 0 0 0 0 0 0 0 0 0 0 0 0 0 0 20 0 0 0 0 0 0 0 34 0 0 0 0 0 25 0 0 0 26 0 
		8 0 0 0 0 0 0 22 0 0 0 29 0 0 0 0 27 0 40 0 0 0 26 0 0 0 0 0 0 0 0 26 0 26 0 0 0 0 0 0 0 0 0 0 34 0 0 0 0 0 0 0 0 0 0 0 0 0 0 0 0 0 0 0 0 36 0 0 28 0 0 0 0 0 0 0 0 0 0 0 0 25 0 0 
		9 22 0 0 0 0 0 0 0 0 0 0 0 0 0 0 0 0 0 0 0 0 0 0 0 0 0 0 0 0 0 0 0 0 0 0 28 0 0 0 20 0 34 0 0 0 0 0 0 0 0 0 0 0 0 0 0 0 0 0 0 0 0 21 0 0 0 0 0 0 0 0 0 0 0 0 0 0 0 0 0 0 0 0 
		10 0 0 0 0 0 0 0 22 29 0 0 20 0 0 0 0 0 0 0 0 0 0 0 0 0 0 0 0 0 0 0 0 0 0 0 0 0 0 0 0 0 0 0 0 0 0 0 0 0 0 0 0 0 0 0 0 0 0 0 0 0 0 0 0 0 0 0 0 0 0 0 0 0 0 0 0 0 0 0 0 0 0 0 
		11 0 22 0 0 0 0 0 0 0 0 20 0 25 0 0 0 0 0 0 0 0 0 0 0 0 0 0 0 35 0 0 0 0 0 20 0 0 0 0 0 0 0 0 36 0 0 0 0 0 0 0 0 0 0 0 0 0 0 0 0 0 0 0 22 0 0 0 0 0 0 0 0 0 0 0 0 0 25 0 32 0 0 0 
		12 0 0 0 31 0 0 0 0 0 0 0 25 0 0 0 29 0 0 0 0 0 0 0 29 0 0 0 0 0 0 0 0 0 0 0 0 0 0 0 0 0 0 0 0 0 0 38 0 0 0 0 0 0 0 0 0 0 0 0 0 0 0 0 0 0 34 0 0 0 0 0 0 0 0 0 0 0 0 0 0 0 0 0 
		13 0 0 0 0 0 0 0 0 0 0 0 0 0 0 0 0 0 0 0 0 0 0 0 0 0 0 0 0 21 0 0 0 0 0 0 0 0 0 0 0 0 0 0 0 0 0 0 0 0 0 27 0 0 0 0 0 0 0 0 0 0 0 0 0 34 0 0 0 0 39 0 22 0 0 0 0 0 0 0 0 0 0 0 
		14 0 0 0 0 0 40 0 0 0 0 0 0 0 0 0 0 29 0 0 0 0 0 0 30 0 0 0 0 0 0 0 0 0 0 0 0 0 0 0 0 0 0 0 0 0 0 0 0 0 0 0 36 0 37 39 30 0 0 0 0 0 36 0 0 0 0 0 0 0 0 0 0 0 0 0 0 0 0 0 0 0 0 31 
		15 0 0 0 0 0 0 0 0 27 0 0 0 29 0 0 0 0 0 0 0 0 31 0 0 0 0 0 0 0 0 0 0 30 36 0 0 0 0 0 0 0 0 0 29 0 0 0 0 0 0 0 0 0 0 0 0 0 0 0 0 0 0 0 0 0 0 0 0 0 0 0 0 0 0 0 0 0 0 0 0 0 0 0 
		16 0 0 0 0 0 0 0 0 0 0 0 0 0 0 29 0 0 0 26 0 0 0 0 0 0 0 0 0 0 0 0 0 0 0 0 35 0 0 0 0 0 0 0 0 0 0 0 0 0 21 0 0 0 0 0 0 0 0 0 0 0 0 0 0 0 0 0 0 0 0 0 0 0 0 0 0 0 0 0 0 0 0 0 
		17 24 23 0 24 0 0 0 0 40 0 0 0 0 0 0 0 0 0 0 0 0 30 0 0 0 0 0 0 0 0 0 0 0 0 0 0 0 33 0 0 0 0 0 0 0 0 0 0 0 0 0 0 0 0 0 22 0 0 0 21 0 0 0 0 0 0 0 0 0 0 0 0 0 0 0 0 0 0 0 0 0 21 0 
		18 0 0 0 0 0 0 0 0 0 0 0 0 0 0 0 0 26 0 0 0 0 0 0 0 0 0 0 0 0 0 0 36 0 0 0 31 0 0 0 0 0 0 0 0 24 0 0 0 21 0 0 0 0 0 0 0 0 0 0 0 0 0 0 0 0 0 0 0 0 0 0 28 0 0 0 0 0 0 0 0 0 0 0 
		19 0 0 0 0 0 0 0 0 0 0 0 0 0 0 0 0 0 0 0 0 0 0 0 0 0 0 0 0 36 0 0 0 0 0 0 0 0 0 0 0 29 23 0 0 37 0 0 23 27 0 40 0 0 0 0 0 0 0 35 0 0 0 0 0 32 0 0 0 0 0 0 0 0 0 32 35 25 0 0 29 0 0 29 
		20 0 21 0 0 0 0 0 0 0 0 0 0 0 0 0 0 0 0 0 0 0 0 0 0 0 0 0 33 0 0 0 0 0 0 32 0 22 0 0 0 0 0 0 0 0 0 0 0 0 0 0 0 0 0 0 0 0 0 0 0 0 0 35 0 0 0 0 0 0 0 0 0 0 0 0 0 0 0 0 0 0 0 0 
		21 0 28 0 0 0 0 33 0 26 0 0 0 0 0 0 31 0 30 0 0 0 0 0 0 35 0 0 0 0 0 0 0 0 0 0 0 0 0 0 0 0 32 0 0 0 0 27 0 0 0 0 0 0 0 0 0 36 0 0 0 0 0 0 0 0 0 0 0 0 0 0 0 36 27 0 0 27 0 0 0 0 0 0 
		22 0 0 27 0 0 0 39 0 0 0 0 0 0 0 0 0 0 0 0 0 0 0 0 20 0 0 0 0 0 0 0 0 0 0 0 31 0 22 0 0 0 0 0 0 0 0 24 0 0 0 0 0 0 0 0 0 0 0 0 0 0 0 0 0 31 25 0 0 0 0 0 0 0 31 0 0 0 30 0 0 0 0 0 
		23 0 0 0 0 0 0 0 0 0 0 0 0 29 0 30 0 0 0 0 0 0 0 20 0 0 0 0 0 0 0 0 0 0 0 0 0 0 0 0 0 0 0 40 30 0 0 0 0 0 0 35 0 0 0 0 0 0 0 23 0 0 22 0 0 0 0 35 0 0 21 0 23 0 0 0 0 0 0 0 0 0 0 0 
		24 0 0 0 0 0 0 0 0 0 0 0 0 0 0 0 0 0 0 0 0 0 35 0 0 0 0 0 35 0 0 0 0 0 24 0 0 0 0 0 35 0 0 0 0 0 0 0 0 0 0 0 0 0 0 0 0 39 0 0 0 0 0 29 0 0 0 0 0 20 0 0 0 0 0 31 0 35 0 39 0 0 0 0 
		25 0 34 0 0 0 0 0 0 0 0 0 0 0 0 0 0 0 0 0 0 0 0 0 0 0 0 0 33 24 0 35 0 0 0 0 0 0 22 0 0 0 0 0 0 0 0 0 0 0 0 0 0 0 40 0 0 39 0 37 31 0 0 0 0 0 0 0 0 0 0 0 0 0 0 0 0 0 0 0 0 0 37 0 
		26 24 0 0 0 0 0 0 0 0 0 0 0 0 0 0 0 0 0 0 0 0 0 0 0 0 0 0 0 0 0 0 0 0 0 0 0 0 0 0 22 0 0 0 0 0 0 0 0 0 0 28 23 34 0 0 0 25 0 0 0 0 0 0 0 0 0 0 0 0 0 0 29 0 0 0 0 0 0 0 0 0 39 35 
		27 0 0 26 0 0 0 37 0 0 0 0 0 0 0 0 0 0 0 0 0 33 0 0 0 35 33 0 0 0 0 0 0 0 0 0 0 0 0 0 0 0 0 0 0 0 0 0 27 0 0 0 0 0 0 0 0 0 31 0 27 0 0 0 0 0 20 0 0 0 20 0 0 0 0 0 0 0 26 0 0 0 0 35 
		28 0 36 0 0 0 0 30 0 0 0 0 35 0 21 0 0 0 0 0 36 0 0 0 0 0 24 0 0 0 0 0 0 0 0 0 0 0 0 0 0 33 0 0 0 0 0 0 0 0 0 0 0 0 0 0 0 0 0 0 0 30 0 0 0 0 0 0 0 36 0 0 0 0 0 0 0 0 0 0 40 31 0 0 
		29 0 0 33 0 0 34 0 0 0 0 0 0 0 0 0 0 0 0 0 0 0 0 0 0 0 0 0 0 0 0 0 0 23 0 31 0 0 0 0 0 0 23 0 27 0 0 0 0 0 0 0 0 0 0 0 0 0 0 0 32 24 0 0 0 38 0 0 0 0 0 0 24 0 0 0 0 0 0 0 0 0 0 0 
		30 0 0 0 0 0 0 0 0 26 0 0 0 0 0 0 0 0 0 0 0 0 0 0 0 0 35 0 0 0 0 0 0 0 0 0 0 0 0 0 0 0 0 0 0 0 0 0 0 0 0 0 0 0 0 0 24 0 0 0 0 0 0 0 0 39 0 0 0 0 28 0 0 0 0 0 0 0 0 38 0 0 0 0 
		31 0 0 0 0 0 0 0 40 0 0 0 0 0 0 0 0 0 0 36 0 0 0 0 0 0 0 0 0 0 0 0 0 0 33 0 0 0 0 0 0 0 0 0 0 0 0 0 0 0 32 0 0 0 0 0 0 0 0 0 0 0 0 21 0 0 0 0 0 0 0 0 0 0 0 0 39 35 0 0 0 0 0 0 
		32 0 0 0 0 0 0 0 0 26 0 0 0 0 0 0 30 0 0 0 0 0 0 0 0 0 0 0 0 0 23 0 0 0 38 0 0 0 0 0 0 0 0 0 0 0 35 0 0 0 0 0 0 0 0 0 0 0 0 0 0 0 0 0 0 0 0 0 0 33 0 0 0 0 0 0 0 0 0 38 36 0 0 0 
		33 0 0 0 0 0 0 0 0 0 0 0 0 0 0 0 36 0 0 0 0 0 0 0 0 24 0 0 0 0 0 0 33 38 0 0 0 0 0 0 25 0 0 0 0 0 0 0 0 0 0 0 0 0 0 0 0 0 0 0 0 35 40 0 0 21 0 0 0 21 0 0 0 0 0 0 0 32 0 0 0 0 0 0 
		34 0 0 0 29 0 0 0 0 0 0 0 20 0 0 0 0 0 0 0 0 32 0 0 0 0 0 0 0 0 31 0 0 0 0 0 0 0 0 0 0 0 0 0 0 0 0 0 0 0 0 0 0 0 0 0 35 0 0 0 0 0 0 0 0 0 0 0 0 0 26 0 0 0 0 0 0 0 0 0 0 0 0 0 
		35 37 0 0 0 24 0 21 0 0 28 0 0 0 0 0 0 35 0 31 0 0 0 31 0 0 0 0 0 0 0 0 0 0 0 0 0 0 0 0 0 0 0 0 33 0 0 0 0 0 0 0 0 36 0 0 0 0 0 0 0 0 0 24 0 0 28 0 0 0 0 0 0 0 33 0 0 0 0 0 0 28 34 0 
		36 0 0 32 0 0 0 0 0 0 0 0 0 0 0 0 0 0 0 0 0 22 0 0 0 0 0 0 0 0 0 0 0 0 0 0 0 0 0 0 0 0 0 0 0 0 0 0 0 0 0 0 0 0 0 0 0 0 0 0 0 0 0 0 0 0 0 0 0 32 0 30 0 0 0 0 0 0 0 0 0 31 0 0 
		37 23 0 0 0 0 0 0 0 0 0 0 0 0 0 0 0 0 33 0 0 0 0 22 0 0 22 0 0 0 0 0 0 0 0 0 0 0 0 25 0 0 0 0 0 0 0 0 31 0 0 26 37 39 24 0 0 0 0 31 0 0 0 27 0 0 0 0 0 0 0 0 0 0 0 0 0 0 0 0 0 0 0 0 
		38 0 0 21 0 30 0 0 0 0 0 0 0 0 0 0 0 0 0 0 0 0 0 0 0 0 0 0 0 0 0 0 0 0 0 0 0 0 25 0 0 0 0 0 0 0 0 22 0 0 21 35 0 40 0 0 0 0 0 0 37 0 29 0 0 0 0 0 0 0 0 0 0 0 0 0 0 0 0 0 0 0 0 0 
		39 0 0 0 0 0 0 40 0 0 20 0 0 0 0 0 0 0 0 0 0 0 0 0 0 35 0 22 0 0 0 0 0 0 25 0 0 0 0 0 0 0 0 0 0 0 0 0 0 0 0 0 0 0 0 0 0 0 0 0 0 0 0 0 0 0 0 0 0 0 0 0 0 0 0 30 0 0 0 0 0 0 0 22 
		40 0 0 0 0 0 0 0 0 0 0 0 0 0 0 0 0 0 0 0 29 0 0 0 0 0 0 0 0 33 0 0 0 0 0 0 0 0 0 0 0 0 0 0 0 39 0 0 20 37 23 0 0 0 0 0 0 0 0 0 0 0 0 34 0 0 0 0 0 0 38 0 0 0 0 39 28 0 0 0 0 0 20 0 
		41 0 26 0 0 0 0 36 0 0 34 0 0 0 0 0 0 0 0 0 23 0 32 0 0 0 0 0 0 0 23 0 0 0 0 0 0 0 0 0 0 0 0 0 0 0 0 0 0 0 0 0 0 0 0 0 0 0 0 0 0 0 25 0 0 0 0 0 0 0 0 0 0 22 0 0 0 35 0 22 0 0 0 0 
		42 0 0 0 0 34 40 0 0 0 0 0 0 0 0 0 0 0 0 0 0 0 0 0 40 0 0 0 0 0 0 0 0 0 0 0 0 0 0 0 0 0 0 0 0 0 0 0 0 0 0 0 0 0 0 0 0 0 0 23 0 0 0 24 0 37 0 0 0 0 0 40 0 0 0 0 0 0 0 0 0 0 0 37 
		43 0 28 0 0 0 0 0 38 34 0 0 36 0 0 0 29 0 0 0 0 0 0 0 30 0 0 0 0 0 27 0 0 0 0 0 33 0 0 0 0 0 0 0 0 0 0 0 0 0 0 0 0 0 27 0 35 0 0 0 22 20 0 0 0 21 0 0 0 0 0 0 0 0 0 0 0 0 0 0 0 0 27 0 
		44 0 0 0 0 0 39 0 30 0 0 0 0 0 0 0 0 0 0 24 37 0 0 0 0 0 0 0 0 0 0 0 0 0 0 0 0 0 0 0 0 39 0 0 0 0 0 33 0 0 0 20 0 0 0 0 0 0 0 0 0 0 0 0 0 0 0 0 0 0 0 23 0 0 0 0 0 0 0 0 0 0 0 0 
		45 0 0 0 0 0 0 31 36 0 0 0 0 0 0 0 0 0 0 0 0 0 0 0 0 0 0 0 0 0 0 0 0 35 0 0 0 0 0 0 0 0 0 0 0 0 0 0 0 0 0 0 0 0 0 0 0 0 0 0 0 38 0 0 0 0 0 0 0 0 0 0 0 0 25 0 0 0 0 0 0 0 28 0 
		46 0 0 0 0 0 0 0 0 0 0 0 0 38 0 0 0 0 0 0 0 0 27 24 0 0 0 0 0 0 0 0 0 0 0 0 0 0 0 22 0 0 0 0 0 33 0 0 0 0 0 0 0 0 0 0 0 0 36 0 0 20 0 0 0 0 21 0 0 0 0 0 0 0 0 40 0 0 0 0 0 0 0 0 
		47 0 0 0 0 0 28 0 0 0 0 0 0 0 0 0 0 0 0 0 23 0 0 0 0 0 0 0 27 0 0 0 0 0 0 0 0 0 31 0 0 20 0 0 0 0 0 0 0 23 0 36 0 0 0 0 0 0 0 0 21 0 0 0 0 0 0 0 0 0 0 0 0 0 0 27 0 0 0 0 0 0 0 21 
		48 0 0 0 0 0 0 0 0 0 0 0 0 0 0 0 0 0 0 21 27 0 0 0 0 0 0 0 0 0 0 0 0 0 0 0 0 0 0 0 0 37 0 0 0 0 0 0 23 0 0 36 0 0 0 26 0 0 0 36 0 0 0 0 0 0 0 0 0 22 0 27 0 0 0 0 23 0 0 0 0 0 0 36 
		49 0 0 28 0 0 0 0 0 0 0 0 0 0 0 0 0 21 0 0 0 0 0 0 0 0 0 0 0 0 0 0 32 0 0 0 0 0 0 21 0 23 0 0 0 0 0 0 0 0 0 0 0 0 0 0 0 0 0 0 0 0 0 0 0 0 0 0 0 0 0 0 0 0 0 0 0 0 0 0 0 0 0 0 
		50 0 0 0 0 0 0 0 0 0 0 0 0 0 27 0 0 0 0 0 40 0 0 0 35 0 0 28 0 0 0 0 0 0 0 0 0 0 26 35 0 0 0 0 0 20 0 0 36 36 0 0 0 0 0 0 0 0 0 0 0 0 0 0 0 0 0 0 0 0 0 35 0 28 0 0 0 0 0 0 0 0 0 0 
		51 0 0 33 0 0 0 0 0 0 0 0 0 0 0 36 0 0 0 0 0 0 0 0 0 0 0 23 0 0 0 0 0 0 0 0 0 0 37 0 0 0 0 0 0 0 0 0 0 0 0 0 0 0 0 0 0 0 37 0 28 0 0 0 0 23 0 32 0 0 25 0 0 0 0 0 29 0 0 0 0 30 0 26 
		52 0 0 0 0 34 0 0 0 0 0 0 0 0 0 0 0 0 0 0 0 0 0 0 0 0 0 34 0 0 0 0 0 0 0 0 36 0 39 40 0 0 0 0 0 0 0 0 0 0 0 0 0 0 0 0 0 0 0 0 0 0 0 0 0 0 0 0 0 0 34 0 0 0 0 0 0 0 0 0 0 0 0 0 
		53 0 40 0 0 0 0 0 0 0 0 0 0 0 0 37 0 0 0 0 0 0 0 0 0 0 40 0 0 0 0 0 0 0 0 0 0 0 24 0 0 0 0 0 27 0 0 0 0 0 0 0 0 0 0 0 0 0 0 0 0 0 0 0 0 0 0 0 29 0 0 0 0 0 0 0 0 0 0 0 0 34 0 0 
		54 0 0 0 0 0 0 34 0 0 0 0 0 0 0 39 0 0 0 0 0 0 0 0 0 0 0 0 0 0 0 0 0 0 0 0 0 0 0 0 0 0 0 0 0 0 0 0 0 26 0 0 0 0 0 0 0 0 0 0 0 0 0 0 0 0 32 0 0 30 0 0 0 0 0 0 0 0 0 0 0 0 0 0 
		55 0 23 0 0 0 0 0 0 0 0 0 0 0 0 30 0 0 22 0 0 0 0 0 0 0 0 0 0 0 0 24 0 0 0 35 0 0 0 0 0 0 0 0 35 0 0 0 0 0 0 0 0 0 0 0 0 0 0 0 0 0 0 0 0 24 0 0 0 0 0 0 0 0 0 0 0 0 0 0 0 0 35 0 
		56 0 0 0 0 0 0 0 0 0 0 0 0 0 0 0 0 0 0 0 0 0 36 0 0 39 39 25 0 0 0 0 0 0 0 0 0 0 0 0 0 0 0 0 0 0 0 0 0 0 0 0 0 0 0 0 0 0 0 0 0 0 0 0 0 0 0 0 0 0 0 0 0 32 0 0 0 24 0 0 0 0 0 0 
		57 0 0 0 0 35 0 0 0 0 0 0 0 0 0 0 0 0 0 0 0 0 0 0 0 0 0 0 31 0 0 0 0 0 0 0 0 0 0 0 0 0 0 0 0 0 0 36 0 0 0 0 37 0 0 0 0 0 0 0 0 0 0 0 0 0 0 28 0 0 0 0 30 0 0 0 0 0 0 0 0 0 0 0 
		58 30 0 0 0 0 0 0 0 0 0 0 0 0 0 0 0 0 0 0 35 0 0 0 23 0 37 0 0 0 0 0 0 0 0 0 0 0 31 0 0 0 0 23 0 0 0 0 0 36 0 0 0 0 0 0 0 0 0 0 0 0 0 0 0 0 0 0 0 0 0 0 0 0 21 0 0 0 0 0 0 0 0 0 
		59 0 0 20 0 0 0 0 0 0 0 0 0 0 0 0 0 0 21 0 0 0 0 0 0 0 31 0 27 0 32 0 0 0 0 0 0 0 0 37 0 0 0 0 22 0 0 0 21 0 0 0 28 0 0 0 0 0 0 0 0 39 0 0 0 0 23 0 0 0 20 0 22 0 0 0 0 0 21 0 25 0 0 0 
		60 26 0 20 0 0 0 0 0 0 0 0 0 0 0 0 0 0 0 0 0 0 0 0 0 0 0 0 0 30 24 0 0 0 35 0 0 0 0 0 0 0 0 0 20 0 38 20 0 0 0 0 0 0 0 0 0 0 0 0 39 0 0 0 0 23 0 0 0 0 0 0 0 26 0 0 0 0 0 0 0 0 21 0 
		61 0 0 32 0 0 0 0 0 0 0 0 0 0 0 36 0 0 0 0 0 0 0 0 22 0 0 0 0 0 0 0 0 0 40 0 0 0 0 29 0 0 25 0 0 0 0 0 0 0 0 0 0 0 0 0 0 0 0 0 0 0 0 39 0 0 0 0 0 0 0 0 0 0 22 0 0 0 0 0 0 0 0 0 
		62 0 0 39 0 36 0 0 0 0 21 0 0 0 0 0 0 0 0 0 0 35 0 0 0 29 0 0 0 0 0 0 21 0 0 0 24 0 27 0 0 34 0 24 0 0 0 0 0 0 0 0 0 0 0 0 0 0 0 0 0 0 39 0 0 0 0 0 0 0 36 0 0 34 0 27 0 0 0 0 0 0 0 23 
		63 0 0 0 0 0 0 0 20 0 0 0 22 0 0 0 0 0 0 0 0 0 0 0 0 0 0 0 0 0 0 0 0 0 0 0 0 0 0 0 0 0 0 0 0 0 0 0 0 0 0 0 0 0 0 0 0 0 0 0 0 0 0 0 0 0 0 0 0 0 0 0 0 37 0 0 0 0 0 0 0 0 0 0 
		64 27 0 0 30 0 0 31 0 36 0 0 0 0 34 0 0 0 0 0 32 0 0 31 0 0 0 0 0 0 38 39 0 0 21 0 0 0 0 0 0 0 0 37 21 0 0 0 0 0 0 0 23 0 0 0 24 0 0 0 0 23 0 0 0 0 0 0 0 0 33 0 39 0 0 0 0 0 0 0 0 0 0 0 
		65 0 0 0 0 0 0 0 0 0 0 0 0 34 0 0 0 0 0 0 0 0 0 25 0 0 0 0 20 0 0 0 0 0 0 0 28 0 0 0 0 0 0 0 0 0 0 21 0 0 0 0 0 0 0 32 0 0 0 0 23 0 0 0 0 0 0 0 0 0 0 0 0 0 0 0 0 0 0 0 0 0 0 0 
		66 0 0 0 0 0 0 0 0 0 0 0 0 0 0 0 0 0 0 0 0 0 0 0 35 0 0 0 0 0 0 0 0 0 0 0 0 0 0 0 0 0 0 0 0 0 0 0 0 0 0 0 32 0 0 0 0 0 28 0 0 0 0 0 0 0 0 0 20 0 0 0 0 0 0 0 0 0 0 0 0 0 0 0 
		67 0 0 0 35 0 0 0 0 28 0 0 0 0 0 0 0 0 0 0 0 0 0 0 0 0 0 0 0 0 0 0 0 0 0 0 0 0 0 0 0 0 0 0 0 0 0 0 0 0 0 0 0 0 29 0 0 0 0 0 0 0 0 0 0 0 0 20 0 0 0 0 0 0 0 0 0 24 0 0 0 0 23 0 
		68 0 0 0 0 0 0 20 0 0 0 0 0 0 0 0 0 0 0 0 0 0 0 0 0 20 0 0 0 36 0 0 0 33 21 0 0 32 0 0 0 0 0 0 0 0 0 0 0 22 0 0 0 0 0 30 0 0 0 0 0 0 0 0 0 0 0 0 0 0 0 0 0 0 0 0 0 0 0 38 0 0 0 0 
		69 0 0 0 0 33 0 0 0 0 0 0 0 0 39 0 0 0 0 0 0 0 0 0 21 0 0 0 20 0 0 28 0 0 0 26 0 0 0 0 0 38 0 0 0 0 0 0 0 0 0 0 25 34 0 0 0 0 0 0 20 0 0 36 0 33 0 0 0 0 0 0 31 0 0 0 0 0 0 0 25 0 0 0 
		70 0 0 0 0 0 35 0 0 0 0 0 0 0 0 0 0 0 0 0 0 0 0 0 0 0 0 0 0 0 0 0 0 0 0 0 0 30 0 0 0 0 0 40 0 23 0 0 0 27 0 35 0 0 0 0 0 0 0 0 0 0 0 0 0 0 0 0 0 0 0 0 0 0 0 28 0 0 0 0 0 0 0 29 
		71 0 0 27 0 0 0 0 34 0 0 0 0 0 22 0 0 0 0 28 0 0 0 0 23 0 0 29 0 0 24 0 0 0 0 0 0 0 0 0 0 0 0 0 0 0 0 0 0 0 0 0 0 0 0 0 0 0 30 0 22 0 0 0 0 39 0 0 0 0 31 0 0 0 0 0 0 0 0 0 0 0 0 0 
		72 0 0 0 0 0 0 0 0 0 0 0 0 0 0 0 0 0 0 0 0 0 36 0 0 0 0 0 0 0 0 0 0 0 0 0 0 0 0 0 0 0 22 0 0 0 0 0 0 0 0 28 0 0 0 0 0 32 0 0 0 26 0 34 37 0 0 0 0 0 0 0 0 0 0 0 0 26 0 31 0 0 30 0 
		73 26 0 0 0 20 0 0 0 0 0 0 0 0 0 0 0 0 0 0 0 0 27 31 0 0 0 0 0 0 0 0 0 0 0 0 33 0 0 0 0 0 0 0 0 0 25 0 0 0 0 0 0 0 0 0 0 0 0 21 0 0 22 0 0 0 0 0 0 0 0 0 0 0 0 0 0 0 0 0 0 0 0 0 
		74 0 0 0 0 0 0 0 0 0 0 0 0 0 0 0 0 0 0 0 32 0 0 0 0 31 0 0 0 0 0 0 0 0 0 0 0 0 0 0 30 39 0 0 0 0 0 40 27 0 0 0 0 0 0 0 0 0 0 0 0 0 0 27 0 0 0 0 0 0 0 28 0 0 0 0 34 27 0 0 0 0 0 0 
		75 0 0 0 0 0 0 0 0 0 0 0 0 0 0 0 0 0 0 0 35 0 0 0 0 0 0 0 0 0 0 0 39 0 0 0 0 0 0 0 0 28 0 0 0 0 0 0 0 23 0 0 29 0 0 0 0 0 0 0 0 0 0 0 0 0 0 0 0 0 0 0 0 0 0 34 0 0 0 0 0 0 0 0 
		76 0 0 0 0 0 0 0 0 0 0 0 0 0 0 0 0 0 0 0 25 0 27 0 0 35 0 0 0 0 0 0 35 0 32 0 0 0 0 0 0 0 35 0 0 0 0 0 0 0 0 0 0 0 0 0 0 24 0 0 0 0 0 0 0 0 0 0 24 0 0 0 0 26 0 27 0 0 0 0 0 0 0 0 
		77 0 0 0 25 0 0 0 25 0 0 0 25 0 0 0 0 0 0 0 0 0 0 30 0 0 0 0 26 0 0 0 0 0 0 0 0 0 0 0 0 0 0 0 0 0 0 0 0 0 0 0 0 0 0 0 0 0 0 0 21 0 0 0 0 0 0 0 0 0 0 0 0 0 0 0 0 0 0 0 0 0 0 0 
		78 0 30 0 0 0 0 0 0 0 0 0 0 0 0 0 0 0 0 0 0 0 0 0 0 39 0 0 0 0 0 38 0 38 0 0 0 0 0 0 0 0 22 0 0 0 0 0 0 0 0 0 0 0 0 0 0 0 0 0 0 0 0 0 0 0 0 0 0 38 0 0 0 31 0 0 0 0 0 0 0 0 0 0 
		79 0 35 0 33 0 0 0 0 0 0 0 32 0 0 0 0 0 0 0 29 0 0 0 0 0 0 0 0 40 0 0 0 36 0 0 0 0 0 0 0 0 0 0 0 0 0 0 0 0 0 0 0 0 0 0 0 0 0 0 25 0 0 0 0 0 0 0 0 0 25 0 0 0 0 0 0 0 0 0 0 0 0 0 
		80 0 0 0 38 0 0 0 0 25 0 0 0 0 0 0 0 0 0 0 0 0 0 0 0 0 0 0 0 31 0 0 0 0 0 0 28 31 0 0 0 0 0 0 0 0 0 0 0 0 0 0 30 0 34 0 0 0 0 0 0 0 0 0 0 0 0 0 0 0 0 0 0 0 0 0 0 0 0 0 0 0 0 0 
		81 0 0 0 34 0 0 34 26 0 0 0 0 0 0 0 0 0 21 0 0 0 0 0 0 0 37 39 0 0 0 0 0 0 0 0 34 0 0 0 0 20 0 0 27 0 28 0 0 0 0 0 0 0 0 0 35 0 0 0 0 21 0 0 0 0 0 0 23 0 0 0 0 30 0 0 0 0 0 0 0 0 0 0 
		82 0 0 0 0 0 0 27 0 0 0 0 0 0 0 31 0 0 0 0 29 0 0 0 0 0 0 35 35 0 0 0 0 0 0 0 0 0 0 0 22 0 0 37 0 0 0 0 21 36 0 0 26 0 0 0 0 0 0 0 0 0 0 23 0 0 0 0 0 0 0 29 0 0 0 0 0 0 0 0 0 0 0 0 
;
